10
2147483647 30 66 27 63 14 2 74 35 57 
30 2147483647 93 67 5 12 81 64 15 87 
66 93 2147483647 6 95 50 3 82 40 26 
27 67 6 2147483647 9 100 30 52 56 91 
63 5 95 9 2147483647 70 83 4 96 23 
14 12 50 100 70 2147483647 55 93 99 21 
2 81 3 30 83 55 2147483647 22 44 78 
74 64 82 52 4 93 22 2147483647 29 14 
35 15 40 56 96 99 44 29 2147483647 72 
57 87 26 91 23 21 78 14 72 2147483647 
